% Data for perfect square placement problem:
% http://www.hakank.org/minizinc/perfect_square_placement.mzn
% Data is originally from CSPLib:
% http://www.cs.st-andrews.ac.uk/~ianm/CSPLib/prob/prob009/results

% problem 70 
n = 286;
size = 25;
a = [1,4,5,7,10,12,15,16,20,23,28,30,32,33,35,37,53,54,64,68,74,79,80,133,153];

